20	5
0	1	1
1	1	13
2	1	10
3	1	6
4	1	2
5	1	7
6	1	5
7	2	4	20
8	1	11
9	0
10	2	14	21
11	2	18	3
12	3	17	9	15
13	1	16
14	1	21
15	1	21
16	1	21
17	1	21
18	1	21
19	1	21
20	1	21
21	0
0	0	0	0	0	0	0
1	5	0	4	4	3	4
2	3	3	0	0	1	5
3	1	1	5	4	5	5
4	1	5	0	0	5	2
5	2	0	5	3	1	0
6	5	5	0	5	0	0
7	7	0	0	3	5	0
8	10	0	3	0	0	2
9	5	4	1	0	1	0
10	7	5	4	0	0	2
11	4	0	1	3	0	1
12	3	3	0	0	5	1
13	5	0	0	3	0	1
14	3	0	0	0	3	0
15	8	0	0	1	0	0
16	6	0	0	4	0	1
17	4	3	0	0	4	0
18	2	0	0	4	0	0
19	4	0	3	0	1	0
20	4	1	1	2	0	0
21	0	0	0	0	0	0
6	6	6	7	6
